60

  0    1    2    3    1    2    3    4    2    3    4    5    3    4    5    6    4    5    6    7    5    6    7    8    6    7    8    9    7    8    9   10    8    9   10   11    9   10   11   12   10   11   12   13   11   12   13   14   12   13   14   15   13   14   15   16   14   15   16   17  
  1    0    1    2    2    1    2    3    3    2    3    4    4    3    4    5    5    4    5    6    6    5    6    7    7    6    7    8    8    7    8    9    9    8    9   10   10    9   10   11   11   10   11   12   12   11   12   13   13   12   13   14   14   13   14   15   15   14   15   16  
  2    1    0    1    3    2    1    2    4    3    2    3    5    4    3    4    6    5    4    5    7    6    5    6    8    7    6    7    9    8    7    8   10    9    8    9   11   10    9   10   12   11   10   11   13   12   11   12   14   13   12   13   15   14   13   14   16   15   14   15  
  3    2    1    0    4    3    2    1    5    4    3    2    6    5    4    3    7    6    5    4    8    7    6    5    9    8    7    6   10    9    8    7   11   10    9    8   12   11   10    9   13   12   11   10   14   13   12   11   15   14   13   12   16   15   14   13   17   16   15   14  
  1    2    3    4    0    1    2    3    1    2    3    4    2    3    4    5    3    4    5    6    4    5    6    7    5    6    7    8    6    7    8    9    7    8    9   10    8    9   10   11    9   10   11   12   10   11   12   13   11   12   13   14   12   13   14   15   13   14   15   16  
  2    1    2    3    1    0    1    2    2    1    2    3    3    2    3    4    4    3    4    5    5    4    5    6    6    5    6    7    7    6    7    8    8    7    8    9    9    8    9   10   10    9   10   11   11   10   11   12   12   11   12   13   13   12   13   14   14   13   14   15  
  3    2    1    2    2    1    0    1    3    2    1    2    4    3    2    3    5    4    3    4    6    5    4    5    7    6    5    6    8    7    6    7    9    8    7    8   10    9    8    9   11   10    9   10   12   11   10   11   13   12   11   12   14   13   12   13   15   14   13   14  
  4    3    2    1    3    2    1    0    4    3    2    1    5    4    3    2    6    5    4    3    7    6    5    4    8    7    6    5    9    8    7    6   10    9    8    7   11   10    9    8   12   11   10    9   13   12   11   10   14   13   12   11   15   14   13   12   16   15   14   13  
  2    3    4    5    1    2    3    4    0    1    2    3    1    2    3    4    2    3    4    5    3    4    5    6    4    5    6    7    5    6    7    8    6    7    8    9    7    8    9   10    8    9   10   11    9   10   11   12   10   11   12   13   11   12   13   14   12   13   14   15  
  3    2    3    4    2    1    2    3    1    0    1    2    2    1    2    3    3    2    3    4    4    3    4    5    5    4    5    6    6    5    6    7    7    6    7    8    8    7    8    9    9    8    9   10   10    9   10   11   11   10   11   12   12   11   12   13   13   12   13   14  
  4    3    2    3    3    2    1    2    2    1    0    1    3    2    1    2    4    3    2    3    5    4    3    4    6    5    4    5    7    6    5    6    8    7    6    7    9    8    7    8   10    9    8    9   11   10    9   10   12   11   10   11   13   12   11   12   14   13   12   13  
  5    4    3    2    4    3    2    1    3    2    1    0    4    3    2    1    5    4    3    2    6    5    4    3    7    6    5    4    8    7    6    5    9    8    7    6   10    9    8    7   11   10    9    8   12   11   10    9   13   12   11   10   14   13   12   11   15   14   13   12  
  3    4    5    6    2    3    4    5    1    2    3    4    0    1    2    3    1    2    3    4    2    3    4    5    3    4    5    6    4    5    6    7    5    6    7    8    6    7    8    9    7    8    9   10    8    9   10   11    9   10   11   12   10   11   12   13   11   12   13   14  
  4    3    4    5    3    2    3    4    2    1    2    3    1    0    1    2    2    1    2    3    3    2    3    4    4    3    4    5    5    4    5    6    6    5    6    7    7    6    7    8    8    7    8    9    9    8    9   10   10    9   10   11   11   10   11   12   12   11   12   13  
  5    4    3    4    4    3    2    3    3    2    1    2    2    1    0    1    3    2    1    2    4    3    2    3    5    4    3    4    6    5    4    5    7    6    5    6    8    7    6    7    9    8    7    8   10    9    8    9   11   10    9   10   12   11   10   11   13   12   11   12  
  6    5    4    3    5    4    3    2    4    3    2    1    3    2    1    0    4    3    2    1    5    4    3    2    6    5    4    3    7    6    5    4    8    7    6    5    9    8    7    6   10    9    8    7   11   10    9    8   12   11   10    9   13   12   11   10   14   13   12   11  
  4    5    6    7    3    4    5    6    2    3    4    5    1    2    3    4    0    1    2    3    1    2    3    4    2    3    4    5    3    4    5    6    4    5    6    7    5    6    7    8    6    7    8    9    7    8    9   10    8    9   10   11    9   10   11   12   10   11   12   13  
  5    4    5    6    4    3    4    5    3    2    3    4    2    1    2    3    1    0    1    2    2    1    2    3    3    2    3    4    4    3    4    5    5    4    5    6    6    5    6    7    7    6    7    8    8    7    8    9    9    8    9   10   10    9   10   11   11   10   11   12  
  6    5    4    5    5    4    3    4    4    3    2    3    3    2    1    2    2    1    0    1    3    2    1    2    4    3    2    3    5    4    3    4    6    5    4    5    7    6    5    6    8    7    6    7    9    8    7    8   10    9    8    9   11   10    9   10   12   11   10   11  
  7    6    5    4    6    5    4    3    5    4    3    2    4    3    2    1    3    2    1    0    4    3    2    1    5    4    3    2    6    5    4    3    7    6    5    4    8    7    6    5    9    8    7    6   10    9    8    7   11   10    9    8   12   11   10    9   13   12   11   10  
  5    6    7    8    4    5    6    7    3    4    5    6    2    3    4    5    1    2    3    4    0    1    2    3    1    2    3    4    2    3    4    5    3    4    5    6    4    5    6    7    5    6    7    8    6    7    8    9    7    8    9   10    8    9   10   11    9   10   11   12  
  6    5    6    7    5    4    5    6    4    3    4    5    3    2    3    4    2    1    2    3    1    0    1    2    2    1    2    3    3    2    3    4    4    3    4    5    5    4    5    6    6    5    6    7    7    6    7    8    8    7    8    9    9    8    9   10   10    9   10   11  
  7    6    5    6    6    5    4    5    5    4    3    4    4    3    2    3    3    2    1    2    2    1    0    1    3    2    1    2    4    3    2    3    5    4    3    4    6    5    4    5    7    6    5    6    8    7    6    7    9    8    7    8   10    9    8    9   11   10    9   10  
  8    7    6    5    7    6    5    4    6    5    4    3    5    4    3    2    4    3    2    1    3    2    1    0    4    3    2    1    5    4    3    2    6    5    4    3    7    6    5    4    8    7    6    5    9    8    7    6   10    9    8    7   11   10    9    8   12   11   10    9  
  6    7    8    9    5    6    7    8    4    5    6    7    3    4    5    6    2    3    4    5    1    2    3    4    0    1    2    3    1    2    3    4    2    3    4    5    3    4    5    6    4    5    6    7    5    6    7    8    6    7    8    9    7    8    9   10    8    9   10   11  
  7    6    7    8    6    5    6    7    5    4    5    6    4    3    4    5    3    2    3    4    2    1    2    3    1    0    1    2    2    1    2    3    3    2    3    4    4    3    4    5    5    4    5    6    6    5    6    7    7    6    7    8    8    7    8    9    9    8    9   10  
  8    7    6    7    7    6    5    6    6    5    4    5    5    4    3    4    4    3    2    3    3    2    1    2    2    1    0    1    3    2    1    2    4    3    2    3    5    4    3    4    6    5    4    5    7    6    5    6    8    7    6    7    9    8    7    8   10    9    8    9  
  9    8    7    6    8    7    6    5    7    6    5    4    6    5    4    3    5    4    3    2    4    3    2    1    3    2    1    0    4    3    2    1    5    4    3    2    6    5    4    3    7    6    5    4    8    7    6    5    9    8    7    6   10    9    8    7   11   10    9    8  
  7    8    9   10    6    7    8    9    5    6    7    8    4    5    6    7    3    4    5    6    2    3    4    5    1    2    3    4    0    1    2    3    1    2    3    4    2    3    4    5    3    4    5    6    4    5    6    7    5    6    7    8    6    7    8    9    7    8    9   10  
  8    7    8    9    7    6    7    8    6    5    6    7    5    4    5    6    4    3    4    5    3    2    3    4    2    1    2    3    1    0    1    2    2    1    2    3    3    2    3    4    4    3    4    5    5    4    5    6    6    5    6    7    7    6    7    8    8    7    8    9  
  9    8    7    8    8    7    6    7    7    6    5    6    6    5    4    5    5    4    3    4    4    3    2    3    3    2    1    2    2    1    0    1    3    2    1    2    4    3    2    3    5    4    3    4    6    5    4    5    7    6    5    6    8    7    6    7    9    8    7    8  
 10    9    8    7    9    8    7    6    8    7    6    5    7    6    5    4    6    5    4    3    5    4    3    2    4    3    2    1    3    2    1    0    4    3    2    1    5    4    3    2    6    5    4    3    7    6    5    4    8    7    6    5    9    8    7    6   10    9    8    7  
  8    9   10   11    7    8    9   10    6    7    8    9    5    6    7    8    4    5    6    7    3    4    5    6    2    3    4    5    1    2    3    4    0    1    2    3    1    2    3    4    2    3    4    5    3    4    5    6    4    5    6    7    5    6    7    8    6    7    8    9  
  9    8    9   10    8    7    8    9    7    6    7    8    6    5    6    7    5    4    5    6    4    3    4    5    3    2    3    4    2    1    2    3    1    0    1    2    2    1    2    3    3    2    3    4    4    3    4    5    5    4    5    6    6    5    6    7    7    6    7    8  
 10    9    8    9    9    8    7    8    8    7    6    7    7    6    5    6    6    5    4    5    5    4    3    4    4    3    2    3    3    2    1    2    2    1    0    1    3    2    1    2    4    3    2    3    5    4    3    4    6    5    4    5    7    6    5    6    8    7    6    7  
 11   10    9    8   10    9    8    7    9    8    7    6    8    7    6    5    7    6    5    4    6    5    4    3    5    4    3    2    4    3    2    1    3    2    1    0    4    3    2    1    5    4    3    2    6    5    4    3    7    6    5    4    8    7    6    5    9    8    7    6  
  9   10   11   12    8    9   10   11    7    8    9   10    6    7    8    9    5    6    7    8    4    5    6    7    3    4    5    6    2    3    4    5    1    2    3    4    0    1    2    3    1    2    3    4    2    3    4    5    3    4    5    6    4    5    6    7    5    6    7    8  
 10    9   10   11    9    8    9   10    8    7    8    9    7    6    7    8    6    5    6    7    5    4    5    6    4    3    4    5    3    2    3    4    2    1    2    3    1    0    1    2    2    1    2    3    3    2    3    4    4    3    4    5    5    4    5    6    6    5    6    7  
 11   10    9   10   10    9    8    9    9    8    7    8    8    7    6    7    7    6    5    6    6    5    4    5    5    4    3    4    4    3    2    3    3    2    1    2    2    1    0    1    3    2    1    2    4    3    2    3    5    4    3    4    6    5    4    5    7    6    5    6  
 12   11   10    9   11   10    9    8   10    9    8    7    9    8    7    6    8    7    6    5    7    6    5    4    6    5    4    3    5    4    3    2    4    3    2    1    3    2    1    0    4    3    2    1    5    4    3    2    6    5    4    3    7    6    5    4    8    7    6    5  
 10   11   12   13    9   10   11   12    8    9   10   11    7    8    9   10    6    7    8    9    5    6    7    8    4    5    6    7    3    4    5    6    2    3    4    5    1    2    3    4    0    1    2    3    1    2    3    4    2    3    4    5    3    4    5    6    4    5    6    7  
 11   10   11   12   10    9   10   11    9    8    9   10    8    7    8    9    7    6    7    8    6    5    6    7    5    4    5    6    4    3    4    5    3    2    3    4    2    1    2    3    1    0    1    2    2    1    2    3    3    2    3    4    4    3    4    5    5    4    5    6  
 12   11   10   11   11   10    9   10   10    9    8    9    9    8    7    8    8    7    6    7    7    6    5    6    6    5    4    5    5    4    3    4    4    3    2    3    3    2    1    2    2    1    0    1    3    2    1    2    4    3    2    3    5    4    3    4    6    5    4    5  
 13   12   11   10   12   11   10    9   11   10    9    8   10    9    8    7    9    8    7    6    8    7    6    5    7    6    5    4    6    5    4    3    5    4    3    2    4    3    2    1    3    2    1    0    4    3    2    1    5    4    3    2    6    5    4    3    7    6    5    4  
 11   12   13   14   10   11   12   13    9   10   11   12    8    9   10   11    7    8    9   10    6    7    8    9    5    6    7    8    4    5    6    7    3    4    5    6    2    3    4    5    1    2    3    4    0    1    2    3    1    2    3    4    2    3    4    5    3    4    5    6  
 12   11   12   13   11   10   11   12   10    9   10   11    9    8    9   10    8    7    8    9    7    6    7    8    6    5    6    7    5    4    5    6    4    3    4    5    3    2    3    4    2    1    2    3    1    0    1    2    2    1    2    3    3    2    3    4    4    3    4    5  
 13   12   11   12   12   11   10   11   11   10    9   10   10    9    8    9    9    8    7    8    8    7    6    7    7    6    5    6    6    5    4    5    5    4    3    4    4    3    2    3    3    2    1    2    2    1    0    1    3    2    1    2    4    3    2    3    5    4    3    4  
 14   13   12   11   13   12   11   10   12   11   10    9   11   10    9    8   10    9    8    7    9    8    7    6    8    7    6    5    7    6    5    4    6    5    4    3    5    4    3    2    4    3    2    1    3    2    1    0    4    3    2    1    5    4    3    2    6    5    4    3  
 12   13   14   15   11   12   13   14   10   11   12   13    9   10   11   12    8    9   10   11    7    8    9   10    6    7    8    9    5    6    7    8    4    5    6    7    3    4    5    6    2    3    4    5    1    2    3    4    0    1    2    3    1    2    3    4    2    3    4    5  
 13   12   13   14   12   11   12   13   11   10   11   12   10    9   10   11    9    8    9   10    8    7    8    9    7    6    7    8    6    5    6    7    5    4    5    6    4    3    4    5    3    2    3    4    2    1    2    3    1    0    1    2    2    1    2    3    3    2    3    4  
 14   13   12   13   13   12   11   12   12   11   10   11   11   10    9   10   10    9    8    9    9    8    7    8    8    7    6    7    7    6    5    6    6    5    4    5    5    4    3    4    4    3    2    3    3    2    1    2    2    1    0    1    3    2    1    2    4    3    2    3  
 15   14   13   12   14   13   12   11   13   12   11   10   12   11   10    9   11   10    9    8   10    9    8    7    9    8    7    6    8    7    6    5    7    6    5    4    6    5    4    3    5    4    3    2    4    3    2    1    3    2    1    0    4    3    2    1    5    4    3    2  
 13   14   15   16   12   13   14   15   11   12   13   14   10   11   12   13    9   10   11   12    8    9   10   11    7    8    9   10    6    7    8    9    5    6    7    8    4    5    6    7    3    4    5    6    2    3    4    5    1    2    3    4    0    1    2    3    1    2    3    4  
 14   13   14   15   13   12   13   14   12   11   12   13   11   10   11   12   10    9   10   11    9    8    9   10    8    7    8    9    7    6    7    8    6    5    6    7    5    4    5    6    4    3    4    5    3    2    3    4    2    1    2    3    1    0    1    2    2    1    2    3  
 15   14   13   14   14   13   12   13   13   12   11   12   12   11   10   11   11   10    9   10   10    9    8    9    9    8    7    8    8    7    6    7    7    6    5    6    6    5    4    5    5    4    3    4    4    3    2    3    3    2    1    2    2    1    0    1    3    2    1    2  
 16   15   14   13   15   14   13   12   14   13   12   11   13   12   11   10   12   11   10    9   11   10    9    8   10    9    8    7    9    8    7    6    8    7    6    5    7    6    5    4    6    5    4    3    5    4    3    2    4    3    2    1    3    2    1    0    4    3    2    1  
 14   15   16   17   13   14   15   16   12   13   14   15   11   12   13   14   10   11   12   13    9   10   11   12    8    9   10   11    7    8    9   10    6    7    8    9    5    6    7    8    4    5    6    7    3    4    5    6    2    3    4    5    1    2    3    4    0    1    2    3  
 15   14   15   16   14   13   14   15   13   12   13   14   12   11   12   13   11   10   11   12   10    9   10   11    9    8    9   10    8    7    8    9    7    6    7    8    6    5    6    7    5    4    5    6    4    3    4    5    3    2    3    4    2    1    2    3    1    0    1    2  
 16   15   14   15   15   14   13   14   14   13   12   13   13   12   11   12   12   11   10   11   11   10    9   10   10    9    8    9    9    8    7    8    8    7    6    7    7    6    5    6    6    5    4    5    5    4    3    4    4    3    2    3    3    2    1    2    2    1    0    1  
 17   16   15   14   16   15   14   13   15   14   13   12   14   13   12   11   13   12   11   10   12   11   10    9   11   10    9    8   10    9    8    7    9    8    7    6    8    7    6    5    7    6    5    4    6    5    4    3    5    4    3    2    4    3    2    1    3    2    1    0  

  0    0    0    0    0    0    0    0   90   32    0   59    0    0   87   67    0    0    0    0    0   60   28   24    2   77    0    0    0    0   50    0    0   34    0    0    0    0    0   78    0    1    0    0    0    0    0    0    0    0    0    0    0    0    0   38   85    0    0  100  
  0    0   25    0    0    0   45    0    0    0    0    0    0    0    0    0    0    0    0    3   86    0    0    0    0    0    0    0    0    0    0    0    0    0   27    0   24    0   85    0    0    9    0    0    0    0   43    0    0    0    0    0   25   87    0    0    0    0    0    0  
  0   20    0    0    0    0    0    0    0    0   47    0    0   93    0    0    0    0    0   69    0    0    0    0    0    0    0    0    0    0    0    0    0    0   67    0    0    0    0    0    0    0    0    0    0    0    0    0    0    0    2    0   33   66    0    0   46    0    0    0  
  0    0    0    0   35    0    0    0    0    0    0    0    0    7    0    0    0   84    0    0    0    0   96    0    0    0   26    0    0    0    0    0    0    0    0    0    0    0    0    0    0    0    8    0    0    0    0    0    0    0   38    0    0    0   97   50    0   68    0    0  
  0    0    0   47    0    0    0    0    0    0    0    0    0   67    0    0    0   76    0    0    0   52    5    0   65    0    3    0    0    0   51    0    0    0    0    0    0    0    0    0    0    0   44    0    0   87    0    0    0    0   31    0    0    0   20    0    0    1    0   54  
  0    0    0    0    0    0   12    0    0    0    0    0    0    0    8    0   75    0   75    0    0    0    0    0    0    0    0   17    0   88    0    0    0    0    0    0    0    0    0   89    7    0    0    0    0    1    0    1    0   37  100    0    0    0    0    0    0    0   45    0  
  0    0    6    0    0   19    0    0    0    0    0    0    0    0    0    0    0    0   69    0    0    0    0    0    0    0    0    1    0   98   73    0    0    0    0    0    0    0   77   59   88    0    0    0    0    0    0    0  100   38   70    0    0    0    0    1    0    0    0    0  
  0    0    0    0    0    0    0    0    0    0   49    0    0    0    0    0   70    0    0    0    0   58    0   44    0    0    0    0    0    0    0    0    0    0    0    0    0    0    0    0    0    0    0    0   89   98    0   71    0    0    0    0   91    0    0    0    0    0   79    0  
 96    0    0    0    0    0    0    0    0   75    0   48    0    0    0   34   63    0    0    0    0   22   86    0   93    0   42    0    0    0    0    0    0   49    0    0    0    0    0    0    0    0    0   90    0    0    0    0    0    0    0    0    0    0    0    2    0    0    0    9  
  2    0    0    0    0    0    0    0   94    0    0   98    0    0   83   33    0    0    0    0    0   11    0    0   40   88    0   80    0    0   54    0    0   62    0    0    0    0    0   48   38    0    0    0    0    0    0    0    0    0    0    0    0    0    0   76   70    0    0   12  
  0   60    0    0    0    0    0   87    0    0    0    0    0    0    0    0   96    0    0    0    0    0    0    0    0    0    0    0   92    0    0    0    0    0    0    0    0    0    0    0    0    0    0    0   53    0    0   35    0    0    0    0    0    0    0    0    0    0   97    0  
 33    0    0    0    0    0    0    0   45   49    0    0    2    0    0   90    0    0    0    0    0   47   48    0    0    0    0    0    0    0    0   28   42   97    0    0   39   12    0    0    0    0    0   71    0    0    6    0    0    0    0    0    0    0    0   89    0    0   45   23  
  0    0    0    0    0    0    0    0    0    0    0   91    0    0    0    0    0    0   62    0    0    0    0    0    0    0    0    0    0    0    0   43   12    0    0    0    0    0    0    0   97    0   96    0    0    0   50    0   70    0    0    0    0    0   74   61    0    3    0    0  
  0    0   55   65    6    0    0    0    0    0    0   82    0    0    0   37    0    0    0    0    0   14   77    0   77    0   83   24    0    0    0    0    0    0    0    0    4    0    0   76    0    0    0    0    0    0    0    0    0    0   37    0   56    1   76    0    0   29    0    0  
 30    0    0    0    0   72    0    0    0   55   41    0    0    0    0    0   45    0    0    0    0    0   64    0    0   35    0   30    0    0   52    0    0    0    0    0    4    0    0   37    0    0    0    0    0   28    0   16    0    8    0    0    0    0    0    0   10    0   66    0  
 76    0    0    0    0    0    0    0   64   84    0   78    0    0    0    0    0    0    0    0    0   62   14    0    2    0   31    0    0    0   83    0    0   23    0    0    0    0    0    0    0    0    0    0    0    0    0    0    0   40    0    0    0    0    0   27    8    0    0   95  
  0    0    0    0   44   16    0   41    0    0   62    0    0    0   70   87    0    0    0    0    0    0    0    0    0   62    0   36    0   67   86    0    0    0    0    0    0    0    0   98    0    0    0    0   95    2    0   61    0   73   96    0    0    0    0    0   77    0   62    0  
  0    0    0   70   54    0    0    0    0    0    0    0    0    0    0    0    0    0   50    0    0    0    0    0    0    0    0    0    0    0    0    0    0    0    0   17    0    0    0    0    0    0   67    0    0    0    0    0    0    0   26    0    0    0   32    0    0   33    0    0  
  0    0    0    0    0    8   62    0    0    0    0    0   83    0    0    0    0    0    0    0    0    0    0    0    0    0    0    1    0   83    0    0    0    0    5    0    0    0    0    0   13    0    8    0    0    0   13    0   85    0    0    0    0    0    0   79    0    0    0    0  
  0   77    0    0    0    0    0    0    0    0    0    0    0    0    0    0    0    0    0    0   48    0    0    0    0    0    0    0    0    0   25    0    0   20   48   31    0    0   66    0    0    8    0   29    0    0    0    0    0    0    0   20   35    4    0    0    0    0    0    0  
  0   62    0   69    0    0    0    0    0    0    0    0    0    0    0    0    0    0    0   56    0    0    0    0    0    0    0    0    0    0    0    0    0    0   49    0    0    0   29    0    0   79    0    0    0    0    0    0    0    0    0   96    0    0    0    0    0    0    0    0  
 87    0    0    0   27    0    0    0   91    7    0   32    0   33    0   23    0    0    0    0    0    0   17    0   24    0   64    0    0    0   55    0    0   11    0    0    0    0    0   36    0    0    0    0    0    0    0    0    0    0    0    0   76    0    0    0    0    0    0   65  
 76    0    0   58   33    0    0   72   35    0    0   12    0    4    0   56    0    0    0    0    0   67    0    0   75    0    4    0    0    0    0    0    0   19    0    0   48   42    0    0    0    8    0    5    0    0    0    0    0    0    0    0    0   51    0    0    0    0    0   42  
  0    0    0    0    0    0   21    0    0    0    0    0    0    0    0    0    0    0    0    0    0    0    5    0    0    0    0    0    0    0    0    0    0    0    0   86    0    0    0    0    0    0   26    0    0    0    0    0    0    0    0    0    0    0    0    0    0    0    0    0  
 31    0    0    0   26    0    0    0   36   46    0    0    0   98    0   84    0    0    0    0    0   26   32    0    0    0   58    0    0   38   91    0    0   50    0    0    0    0    0    0    0    0   50    0    0    0    0    0    0    0    0    0   95   96    0    0    0    0    0   89  
 16    0    0    0    0    0    0    0    0   79    0    0    0    0   77   49   46    0    0    0    0    0    0    0    0    0    0    0   90    0   92    0    0    0    0    0    0    0    0    0   44   10    0    0    0    0    0    4    0    0    0   60    0    0    0    0   20    0    0    0  
  0    0    0   88   81   42    0    0   56    0    0    0    0   82   15   51    0    0    0    0    0    6   60    0   10    0    0    0    0    0    0   61    0    0    0    0    0   45    0    0    0    0   65    3    0    0    0    0    0    0   34    0    0    0   81    0    0   26    0   69  
  0    0    0    0    0   72   67    0    0   26    0    0    0    0   55    0   54   90   48    0    0    0    0    0    0    0    0    0    0   17    0   82    0   86    0    0    0    0    0   54    3    0    0    0    0    8    0   76    0   75    0    0    0    0    0   10   42    0   53    0  
  0    0    0    0    0    0    0    0    0    0   35    0    0    0    0    0    0    0    0    0    0    0    0   44    0   54   91    0    0   86   24    0    0    0    0    0    0    0    0    0    0   11    0    0    0    0    0    0    0    0    0   86    0    0    0    0    0    0    0   72  
  0    0    0    0    0   57   62    0    0    0    0    0    0    0    0    0   79    0   58   64    0    0    0    0    0    0    0   22    0    0    0    0    0    0    0    0    0   72    0   61   71   70    0    0    0   19    0   61    0   87    0    0    0    0    0    0    0    0   35    0  
 25    0    0    0    0    0    0    0    0   63    0    0    0    0   60   94   28   91    0    0    0   82    0   81   84   95    0    0   85    0    0    0    5    6    0    0    0    0    0    0    0   96    0    0    0    0    0    0    0    0    0   67    0    0    0    0   18    0    0    0  
  0    0    0    0    0    0    0    0    0    0    0    2   90    0    0    0    0    0    0    0    0    0    0    0    0    0    0    0    0    0    0    0   51    0    0    0   35    8    0    0    0    0    0   86    0    0    0    0    0    0    0    0    0    0    0    0    0    0    0    0  
  0    0    0    0    0   73    0    0    0    0    0   49   13    0    0    0    0    0    0    0   48    0    0    0    0    0    0    0    0    0    0    8    0    0    0    0   63   26    0    0    0    0    0   81    0    0   90    0    0    0    0    0    0    0    0    0    0    0   18    0  
 60    0    0    0    0    0    0    0    4   57    0   11   51    0    0   73    0   53    0    0    0   41   86    0   18    0    0    0    0    0   26    0    0    0    0    0    0    0    0   14    0    0    0    0    0    0    0    0    0    0    0    0    0    0    0   44   28    0    0   90  
  0    5   63    0    0    0    0    0    0    0    0    0    0    0    0    0    0    0    0   12   61    0    0    0    0    0    0    0    0    0    0    0    0    0    0    0    0    0   94    0    0    0    0    0    0    0    0    0    0    0    0    0    5   33    0    0    0    0    0    0  
  0    0   82    0    0    0    0    0    0    0    0   73    0    0    0    0    0   20    0    0   46    0    0   33    0   20    0    0    0    0    0    0    0    0    0    0    0    0    0    0    0    0    3    0    0    0    0    0    0    0   22    0    0    0   62    0    0   33    0    0  
  0    0    0    0    0    0    0    0    0    0    0    7    0   36    0    0    0    0    0    0    0    0    7   70    0    0    0    0    0    0    0   58   58    0    0   98    0    9    0   51    0    0    0   73    0    0    0   38    0    0    0    0    0    0    0    0    0    0    0   91  
  0    0    0    0    0    0    0    0    0    0    0   89    0    0    0    0    0    0    0    0    0    0   35    0    0    0   15    0    0    0    0   45   53    0    0    0   28    0    0    0    0    0    0   21    0    0    0    0    0    0    0    0    0    0    0    0    0   92    0   66  
  0   23    0    0    0    0    0    0    0    0    0    0    0    0    0    0    0   94    0    4    1    0    0    0    0    0    0    0    0    0    0    0    0    0   60    0    0    0    0    0    0   87    0    0    0    0    0    0    0    0    0    7   74   46    0    0    0    0    0    0  
 53    0    0    0    0   17    2    0    0    8    0    0    0    0   99    0   74    0    0    0    0    0    0    0    0    0    0   13    0    2    0    0    0   20    0    0    0    0    0    0   27    0    0    0    0   38    0    0    0   54    0    0    0    0    0   81   63    0   21    0  
  0    0    0    0    0    2    4    0    0    0    0    0   81    0    0    0    0    0   58    0    0    0    0    0    0    0    0   33    0   53    0    0    0    8    0    0    0    0    0   62    0    0    0    0   98    0   10    0   52   32    0    0    0    0    0   49   97    0    0    0  
  0   54    0    0    0    0    0    0    0    0    0    0    0    0    0    0    0    0    0   11   79    0    0    0    0    9    0    0   12    0   86    0    0    0    0    0    0    0   21    0    0    0    0    0    0    0    0    0    0    0    0   66    0    0    0    0    0    0   82    0  
 57    0    0   12   36    0    0    0    0    0    0    0    0    0    0    0    0   85    0    0    0    0    0   88    0    0   93    0    0    0    0    0    0    0    0   88    0    0    0    0    0    0    0    0    0    0    0    0    0    0    0    0    0    0   12    0    0   30    0    0  
  0    0    0    0    0    0    0    0   14    0    0    5    0    0    0    0    0    0    0    0    0    0   27    0    0    0    4    0    0    0    0   32   68    0    0    0   81   33    0    0    0    0    0    0    0    0    0    0   65    0    0    0    0    0    0    0   54    0    0   45  
  0    0    0    0    0    0    0   82    0    0   93    0    0    0    0    0   61    0    0    0    0    0    0    0    0    0    0    0    0    0   76    0    0    0    0    0    0    0    0    0    0    0    0    0    0   16    0   26    0    1    0    0    0    0    0    0    0    0   49    0  
  0    0    0    0    0   71    0   75    0    0    0    0    0    0   49    0   74    0   40    0    0    0   44    0    0    0    0   50   20   32    0    0    0    0    0    0    0    0    0   69    0    0    0    0  100    0    0   76    0   27    0    0    0    0    0    0   35    0    1    0  
  0    0    0    0    0    0    0    0    0    0    0   44   94    0    0    0    0    0    5    0    0    0    0    0    0    0    0    0    0    0    0    0   36    0    0    0    0    0    0    0   58    0    0    0    0    0    0    0   53    0    0    0    0    0    0   13    0    0    0    0  
  0    0    0    0    0   68    0   78    0    0   27    0    0    0  100    0   75    0    0    0    0    0    0    0    0   35    0   92    0   18    0    0    0    0    0    0    0    0    0    0    0    0    0    0   74   53    0    0    0   29    0    0    0    0    0    0   49    0   37    0  
  0    0    0    0    0    0   18    0    0    0    0    0   61    0    0    0    0    0   84    0    0    0    0    0    0    0    0    0    0    0    0    0    0    0    0    0    0    0    0    0   74    0    0    0    0    0   98    0    0    0    0    0    0    0    0   34    0    0    0    0  
  0    0    0    0   38   86   53    0    0    0   30    0    0    0   88    0   68    0    0    0    0    0    0    0    0    0    0   92    0   46    0    0    0    0    0    0    0    0    0   58   19    0    0    0   28    3    0   90    0    0    0    0    0    0    0    0   47    0   88    0  
  0    0   11   23   71    0    0    0    0    0    0    0    0   92    0    0    0   44    0    0    0    0    0    0    0    0   49    0    0    0    0    0    0   28    0    0    0    0    0    0    0    0    0   85    0    0    0    0    0    0    0    0   48   33   66    0    0   18    0    0  
  0    0   42    0    0    0    0    0    0    0    0    0    0    0    0    0   82    0    0   80   88    0    0    0   11    9    0    0   17    0    9   77    0    0    0    0    0    0   14   23    0   69    0    0    0    0    0    0    0    0    0    0    0    0    0    0    0    0    0   78  
  0    1   27    0    0    0    0    0    0    0    0    0    0   74    0    0    0    0    0   83    0   90    0    0   48    0    0    0    0    0    0    0    0    0   97    0    0    0   34    0    0    0    0    0    0    0    0    0    0    0   22    0    0    8    0    0    0    0    0    0  
  0   10   11    0    0    0    0    0    0    0    0   22    0   20    0    0    0   68    0   89    0    0    0   29   72   61    0    0    0    0    0    0    0    0   25    0    0    0   99    0    0    0    0    0    0    0    0    0    0    0   89    0   24    0   40    0    0    0    0    0  
  0    0    0   46   74    0    0    0    0    0    0    0    0   65    0    0    0   32    0    0    0    0    0    0    0    0   71    0    0    0    0    0    0    0    0   27    0    0    0    0    0    0   31    0    0    0    0    0    0    0   71    0    0    0    0    0    0   26    0    0  
 98    0    0    0    0    0   63    0   94   18    0   11   79    0    0   69    0    0    0   11    0  100    0    0    0    0    0   88    0    0    0    0    0    9    0    0    0    0    0   87   74    0    0    0    0    0   20    0   42    0    0    0    0    0    0    0   80    0    0   78  
 10    0    0    0    0    0    0    0    0    5    0    0    0   28   84   35   19    0    0    0    0   92    0    0    0   30    0   22    0    0   95    0    0   80    0    0    0    0    0   78    0    0    0    0    0   61    0   71    0    6    0    0    0    0    0   47    0    0   96    0  
  0    0   50   50    1    0    0    0    0    0    0    0    0   78   83    0    0   31    0    0    0    0    0    0    0    0   43    0    0    0    0    0    0    0    0   59    0    0    0    0    0    0   64    0    0    0    0    0    0    0    6    0    0    0   34    0    0    0    0    0  
  0    0    0    0    0   76    0   81    0    0   50    0    0    0   92    0   62    0    0    0    0    0    0    0    0    0    0   64    0   13    0    0    0    0    0    0    0   19    0   68    0    0    0    0   35   66    0   51    0    7    0    0    0    0    0    0   71    0    0    0  
 60   34    0    0   94    0    0    0   54   99   16   90    0    0    0   47    0    0    0    0    0   59   95    0   92    0   25    0    0    0    0    0    0   13    0    0    2   15    0    0   84    0    0   59   17    0    0    0    0    0    0    0    0    0    0   49    0    0    0    0  
